Set parameter TSPort to value 51199
Set parameter TokenServer to value "open-license1.lanl.gov"
Set parameter TimeLimit to value 128
Set parameter Threads to value 1
Gurobi Optimizer version 10.0.3 build v10.0.3rc0 (linux64)

CPU model: Intel(R) Xeon(R) CPU E5-2695 v4 @ 2.10GHz, instruction set [SSE2|AVX|AVX2]
Thread count: 36 physical cores, 72 logical processors, using up to 1 threads

Optimize a model with 0 rows, 598 columns and 0 nonzeros
Model fingerprint: 0x381b11d0
Model has 2589 quadratic objective terms
Variable types: 0 continuous, 598 integer (598 binary)
Coefficient statistics:
  Matrix range     [0e+00, 0e+00]
  Objective range  [2e+00, 3e+01]
  QObjective range [8e+00, 8e+00]
  Bounds range     [1e+00, 1e+00]
  RHS range        [0e+00, 0e+00]
Found heuristic solution: objective 0.0000000
Found heuristic solution: objective -1012.000000
Found heuristic solution: objective -3594.000000
Found heuristic solution: objective -3608.000000
Presolve removed 0 rows and 1 columns
Presolve time: 0.25s
Presolved: 2586 rows, 3183 columns, 7758 nonzeros
Variable types: 0 continuous, 3183 integer (3183 binary)

Root relaxation: objective -4.912000e+03, 695 iterations, 0.01 seconds (0.01 work units)

    Nodes    |    Current Node    |     Objective Bounds      |     Work
 Expl Unexpl |  Obj  Depth IntInf | Incumbent    BestBd   Gap | It/Node Time

     0     0 -4912.0000    0  597 -3608.0000 -4912.0000  36.1%     -    0s
     0     0 -4489.0000    0  818 -3608.0000 -4489.0000  24.4%     -    0s
     0     0 -4488.0000    0  820 -3608.0000 -4488.0000  24.4%     -    0s
     0     0 -4409.2500    0  881 -3608.0000 -4409.2500  22.2%     -    0s
     0     0 -4409.2500    0  873 -3608.0000 -4409.2500  22.2%     -    1s
     0     2 -4409.2500    0  873 -3608.0000 -4409.2500  22.2%     -    1s
   513   491 -3665.5000  126  597 -3608.0000 -4395.0000  21.8%  83.1    5s
   533   505 -4048.0543   14 1713 -3608.0000 -4048.0543  12.2%  80.0   10s
   542   511 -3633.0000  136 1984 -3608.0000 -3993.2305  10.7%  78.6   15s
   551   517 -3954.5774   10 2193 -3608.0000 -3954.5774  9.61%  77.3   20s
   559   522 -3628.0000  137 2356 -3608.0000 -3929.3710  8.91%  76.2   25s
   568   528 -3905.1965   45 2594 -3608.0000 -3905.1965  8.24%  75.0   32s
   570   529 -3900.7062   16 2628 -3608.0000 -3900.7062  8.11%  74.8   35s
   576   533 -3880.5000   73 2685 -3608.0000 -3885.7007  7.70%  74.0   40s
   584   539 -3806.5000   81 2708 -3608.0000 -3875.6521  7.42%  73.0   46s
   592   544 -3651.5000  131 2739 -3608.0000 -3870.8302  7.28%  72.0   50s
   604   552 -3796.5000   92 2769 -3608.0000 -3864.4318  7.11%  70.6   56s
   611   557 -3771.0000   89 2784 -3608.0000 -3860.2909  6.99%  69.7   60s
   623   565 -3856.5021   40 2812 -3608.0000 -3856.5021  6.89%  68.4   65s
   637   574 -3762.0000  100 2801 -3608.0000 -3852.1511  6.77%  66.9   70s
   652   584 -3848.2427    5 2835 -3608.0000 -3848.2427  6.66%  65.4   75s
   664   592 -3653.0000  129 2836 -3608.0000 -3844.0889  6.54%  64.2   80s
   681   603 -3640.0000  134 2859 -3608.0000 -3839.6498  6.42%  62.6   85s
   697   614 -3836.9537   66 2857 -3608.0000 -3836.9537  6.35%  61.1   90s
   718   630 -3836.0177   36 2507 -3608.0000 -3836.0177  6.32%   325   99s
   719   630 -3836.0177   58 2760 -3608.0000 -3836.0177  6.32%   325  106s
   721   632 -3836.0177   20 2807 -3608.0000 -3836.0177  6.32%   324  110s
   735   641 -3833.4757    4 2854 -3608.0000 -3833.4757  6.25%   317  115s
   751   652 -3830.7652   10 2879 -3608.0000 -3830.7652  6.17%   311  120s
   763   660 -3776.5000   97 2887 -3608.0000 -3827.8775  6.09%   306  125s

Cutting planes:
  Gomory: 19
  MIR: 101
  Flow cover: 1047
  Zero half: 395
  Mod-K: 3
  RLT: 113
  BQP: 179

Explored 770 nodes (315708 simplex iterations) in 128.00 seconds (140.94 work units)
Thread count was 1 (of 72 available processors)

Solution count 4: -3608 -3594 -1012 0 

Time limit reached
Best objective -3.608000000000e+03, best bound -3.826000000000e+03, gap 6.0421%

User-callback calls 7634, time in user-callback 0.03 sec

BQP_SOLUTION, 598, 2589, -1283.000000, 128.003098, -1, 1, -1, -1, -1, 1, -1, -1, -1, 1, -1, 1, -1, -1, -1, -1, 1, -1, -1, 1, -1, 1, -1, -1, -1, -1, 1, -1, -1, -1, -1, 1, -1, -1, -1, 1, -1, 1, -1, -1, -1, 1, -1, -1, 1, -1, -1, 1, -1, -1, -1, 1, 1, 1, -1, -1, 1, -1, -1, -1, -1, 1, 1, -1, -1, 1, 1, -1, -1, -1, -1, 1, -1, -1, 1, 1, -1, -1, -1, -1, -1, 1, 1, -1, 1, -1, 1, -1, -1, 1, 1, -1, -1, 1, -1, 1, -1, 1, 1, 1, 1, 1, 1, 1, -1, 1, -1, 1, -1, 1, 1, -1, 1, 1, -1, 1, -1, -1, -1, 1, 1, -1, -1, 1, -1, 1, -1, 1, 1, -1, 1, -1, 1, 1, -1, 1, -1, 1, -1, -1, 1, -1, 1, 1, 1, 1, -1, 1, 1, -1, -1, -1, 1, 1, -1, -1, 1, 1, 1, -1, 1, -1, 1, -1, 1, -1, 1, 1, -1, 1, -1, 1, 1, -1, -1, -1, 1, -1, 1, -1, 1, -1, 1, -1, -1, -1, -1, -1, -1, -1, 1, -1, -1, 1, -1, 1, -1, 1, -1, -1, -1, -1, -1, 1, -1, 1, 1, 1, 1, -1, 1, 1, -1, 1, -1, 1, -1, -1, 1, 1, 1, 1, -1, 1, -1, 1, 1, -1, 1, -1, 1, -1, -1, 1, 1, 1, -1, -1, 1, -1, 1, -1, -1, 1, 1, 1, -1, -1, 1, 1, 1, -1, 1, 1, 1, 1, -1, 1, 1, 1, 1, 1, -1, 1, 1, -1, -1, -1, 1, 1, -1, 1, -1, 1, 1, -1, 1, -1, 1, 1, -1, 1, -1, 1, 1, -1, 1, -1, 1, 1, -1, 1, -1, 1, 1, -1, 1, 1, 1, 1, -1, 1, -1, 1, 1, -1, -1, 1, -1, 1, -1, 1, -1, -1, 1, -1, 1, 1, 1, 1, -1, 1, 1, 1, 1, -1, 1, -1, 1, -1, 1, -1, -1, -1, -1, 1, 1, 1, -1, -1, -1, 1, -1, 1, -1, 1, 1, -1, 1, -1, -1, -1, 1, 1, -1, 1, 1, 1, 1, -1, 1, -1, 1, 1, 1, 1, -1, 1, -1, 1, 1, -1, 1, -1, 1, 1, -1, 1, -1, 1, 1, -1, -1, -1, 1, 1, -1, 1, -1, 1, 1, -1, 1, -1, -1, 1, 1, -1, -1, 1, 1, -1, 1, -1, -1, 1, -1, -1, 1, -1, -1, -1, 1, 1, -1, 1, -1, -1, -1, 1, -1, 1, -1, -1, 1, -1, -1, -1, 1, -1, 1, 1, -1, 1, -1, -1, 1, -1, 1, 1, -1, 1, -1, 1, 1, -1, 1, -1, 1, 1, 1, 1, 1, 1, -1, -1, -1, -1, 1, 1, -1, 1, 1, 1, 1, -1, 1, 1, 1, -1, -1, 1, 1, 1, 1, -1, 1, 1, 1, -1, 1, 1, 1, 1, -1, 1, 1, 1, 1, -1, -1, 1, 1, 1, -1, -1, 1, 1, 1, 1, -1, 1, 1, 1, 1, -1, 1, 1, 1, 1, -1, -1, 1, 1, -1, 1, -1, -1, 1, 1, -1, 1, 1, 1, -1, -1, -1, -1, 1, 1, -1, -1, -1, 1, 1, 1, 1, 1, 1, -1, 1, -1, -1, 1, -1, 1, -1, -1, 1, 1, 1, -1, -1, -1, 1, 1, -1, -1, 1, 1, 1, -1, 1, 1, -1, 1, -1, -1, 1, -1, 1, -1, -1, 1, 1, 1, -1, -1, -1, 1, -1, 1, -1, 1, -1, 1, 1, -1, 1, -1, 1, 1, -1, -1, 1, 1, 1, -1
BQP_DATA, 598, 2589, -1283.000000, -1501.000000, -3608.000000, -3826.000000, 128.003098, 1565, 770
